(declare-rel BinOpExp (expr binop expr expr))
(declare-rel EvalLv (node lval loc))
(declare-rel AddrOf (expr lval))
(declare-rel Index (lval lval expr))
(declare-rel ErrTrace (node node))
(declare-rel Arg (arg_list int expr))
(declare-rel Mem (lval expr))
(declare-rel Copy (node lval lval))
(declare-rel UnOpExp (expr unop expr))
(declare-rel CallExp (expr expr arg_list))
(declare-rel DUEdge (node node))
(declare-rel Set (node lval expr))
(declare-rel LibCallExp (expr expr arg_list))
(declare-rel LvalExp (expr lval))
(declare-rel Skip (node))
(declare-rel Assume (node expr))
(rule (AddrOf 25 26))
(rule (AddrOf 27 28))
(rule (Arg 29 30 31))
(rule (Arg 32 33 27))
(rule (Arg 32 34 35))
(rule (Arg 32 36 37))
(rule (Arg 32 38 39))
(rule (Arg 40 41 42))
(rule (Arg 40 43 25))
(rule (Arg 40 44 45))
(rule (Arg 40 46 47))
(rule (Arg 48 49 50))
(rule (Arg 48 51 52))
(rule (Assume 53 54))
(rule (Assume 55 56))
(rule (Assume 57 58))
(rule (Assume 59 60))
(rule (Assume 61 58))
(rule (Assume 62 60))
(rule (Assume 63 64))
(rule (Assume 65 66))
(rule (Assume 67 58))
(rule (Assume 68 60))
(rule (Assume 69 58))
(rule (Assume 70 60))
(rule (Assume 71 58))
(rule (Assume 72 60))
(rule (Assume 73 58))
(rule (Assume 74 60))
(rule (Assume 75 58))
(rule (Assume 76 60))
(rule (Assume 77 58))
(rule (Assume 78 60))
(rule (Assume 79 58))
(rule (Assume 80 60))
(rule (Assume 81 58))
(rule (Assume 82 60))
(rule (Assume 83 58))
(rule (Assume 84 60))
(rule (Assume 85 58))
(rule (Assume 86 60))
(rule (Assume 87 58))
(rule (Assume 88 60))
(rule (Assume 89 58))
(rule (Assume 90 60))
(rule (Assume 91 58))
(rule (Assume 92 60))
(rule (Assume 93 58))
(rule (Assume 94 60))
(rule (Assume 95 58))
(rule (Assume 96 60))
(rule (Assume 97 58))
(rule (Assume 98 60))
(rule (Assume 99 58))
(rule (Assume 100 60))
(rule (Assume 101 102))
(rule (Assume 103 104))
(rule (Assume 105 64))
(rule (Assume 106 66))
(rule (Assume 107 58))
(rule (Assume 108 60))
(rule (Assume 109 58))
(rule (Assume 110 60))
(rule (Assume 111 112))
(rule (BinOpExp 60 11 113 114))
(rule (BinOpExp 114 3 115 116))
(rule (BinOpExp 117 0 113 116))
(rule (BinOpExp 104 11 113 118))
(rule (BinOpExp 118 3 115 119))
(rule (BinOpExp 120 1 121 113))
(rule (BinOpExp 66 11 113 122))
(rule (BinOpExp 122 3 115 123))
(rule (BinOpExp 124 15 31 125))
(rule (BinOpExp 126 11 113 115))
(rule (BinOpExp 127 15 42 125))
(rule (BinOpExp 128 19 129 130))
(rule (BinOpExp 129 19 131 132))
(rule (BinOpExp 131 19 133 134))
(rule (BinOpExp 133 9 135 136))
(rule (BinOpExp 134 9 137 138))
(rule (BinOpExp 132 9 139 140))
(rule (CallExp 141 142 40))
(rule (CallExp 143 144 29))
(rule (Copy 145 146 147))
(rule (Copy 148 149 150))
(rule (Copy 151 152 153))
(rule (DUEdge 154 155))
(rule (DUEdge 156 154))
(rule (DUEdge 53 157))
(rule (DUEdge 158 159))
(rule (DUEdge 145 53))
(rule (DUEdge 157 156))
(rule (DUEdge 159 145))
(rule (DUEdge 160 158))
(rule (DUEdge 160 157))
(rule (DUEdge 161 55))
(rule (DUEdge 161 111))
(rule (DUEdge 161 162))
(rule (DUEdge 161 163))
(rule (DUEdge 164 165))
(rule (DUEdge 164 61))
(rule (DUEdge 164 62))
(rule (DUEdge 164 162))
(rule (DUEdge 165 166))
(rule (DUEdge 165 63))
(rule (DUEdge 165 65))
(rule (DUEdge 165 162))
(rule (DUEdge 166 167))
(rule (DUEdge 166 67))
(rule (DUEdge 166 68))
(rule (DUEdge 166 162))
(rule (DUEdge 167 168))
(rule (DUEdge 167 69))
(rule (DUEdge 167 70))
(rule (DUEdge 167 162))
(rule (DUEdge 168 169))
(rule (DUEdge 168 71))
(rule (DUEdge 168 72))
(rule (DUEdge 168 162))
(rule (DUEdge 169 170))
(rule (DUEdge 169 73))
(rule (DUEdge 169 74))
(rule (DUEdge 169 162))
(rule (DUEdge 170 171))
(rule (DUEdge 170 75))
(rule (DUEdge 170 76))
(rule (DUEdge 170 162))
(rule (DUEdge 171 172))
(rule (DUEdge 171 77))
(rule (DUEdge 171 78))
(rule (DUEdge 171 162))
(rule (DUEdge 172 173))
(rule (DUEdge 172 79))
(rule (DUEdge 172 80))
(rule (DUEdge 172 162))
(rule (DUEdge 173 174))
(rule (DUEdge 173 81))
(rule (DUEdge 173 82))
(rule (DUEdge 173 162))
(rule (DUEdge 174 175))
(rule (DUEdge 174 83))
(rule (DUEdge 174 84))
(rule (DUEdge 174 162))
(rule (DUEdge 175 176))
(rule (DUEdge 175 85))
(rule (DUEdge 175 86))
(rule (DUEdge 175 162))
(rule (DUEdge 176 177))
(rule (DUEdge 176 87))
(rule (DUEdge 176 88))
(rule (DUEdge 176 162))
(rule (DUEdge 177 178))
(rule (DUEdge 177 89))
(rule (DUEdge 177 90))
(rule (DUEdge 177 162))
(rule (DUEdge 178 179))
(rule (DUEdge 178 91))
(rule (DUEdge 178 92))
(rule (DUEdge 178 162))
(rule (DUEdge 179 180))
(rule (DUEdge 179 93))
(rule (DUEdge 179 94))
(rule (DUEdge 179 162))
(rule (DUEdge 180 181))
(rule (DUEdge 180 95))
(rule (DUEdge 180 96))
(rule (DUEdge 180 162))
(rule (DUEdge 181 182))
(rule (DUEdge 181 97))
(rule (DUEdge 181 98))
(rule (DUEdge 181 162))
(rule (DUEdge 182 183))
(rule (DUEdge 182 99))
(rule (DUEdge 182 100))
(rule (DUEdge 182 162))
(rule (DUEdge 183 184))
(rule (DUEdge 183 101))
(rule (DUEdge 183 103))
(rule (DUEdge 183 162))
(rule (DUEdge 184 185))
(rule (DUEdge 184 105))
(rule (DUEdge 184 106))
(rule (DUEdge 184 162))
(rule (DUEdge 185 186))
(rule (DUEdge 185 107))
(rule (DUEdge 185 108))
(rule (DUEdge 185 162))
(rule (DUEdge 186 187))
(rule (DUEdge 186 109))
(rule (DUEdge 186 110))
(rule (DUEdge 186 162))
(rule (DUEdge 187 151))
(rule (DUEdge 187 162))
(rule (DUEdge 188 163))
(rule (DUEdge 55 164))
(rule (DUEdge 55 57))
(rule (DUEdge 55 59))
(rule (DUEdge 57 164))
(rule (DUEdge 59 189))
(rule (DUEdge 61 165))
(rule (DUEdge 62 190))
(rule (DUEdge 63 166))
(rule (DUEdge 65 191))
(rule (DUEdge 67 167))
(rule (DUEdge 68 192))
(rule (DUEdge 69 168))
(rule (DUEdge 70 193))
(rule (DUEdge 71 169))
(rule (DUEdge 72 194))
(rule (DUEdge 73 170))
(rule (DUEdge 74 195))
(rule (DUEdge 75 171))
(rule (DUEdge 76 196))
(rule (DUEdge 77 172))
(rule (DUEdge 78 197))
(rule (DUEdge 79 173))
(rule (DUEdge 80 198))
(rule (DUEdge 81 174))
(rule (DUEdge 82 199))
(rule (DUEdge 83 175))
(rule (DUEdge 84 200))
(rule (DUEdge 85 176))
(rule (DUEdge 86 201))
(rule (DUEdge 87 177))
(rule (DUEdge 88 202))
(rule (DUEdge 89 178))
(rule (DUEdge 90 203))
(rule (DUEdge 91 179))
(rule (DUEdge 92 204))
(rule (DUEdge 93 180))
(rule (DUEdge 94 205))
(rule (DUEdge 95 181))
(rule (DUEdge 96 206))
(rule (DUEdge 97 182))
(rule (DUEdge 98 207))
(rule (DUEdge 99 183))
(rule (DUEdge 100 208))
(rule (DUEdge 101 184))
(rule (DUEdge 103 209))
(rule (DUEdge 105 185))
(rule (DUEdge 106 210))
(rule (DUEdge 107 186))
(rule (DUEdge 108 211))
(rule (DUEdge 109 187))
(rule (DUEdge 110 212))
(rule (DUEdge 111 163))
(rule (DUEdge 189 162))
(rule (DUEdge 190 162))
(rule (DUEdge 191 213))
(rule (DUEdge 213 162))
(rule (DUEdge 192 162))
(rule (DUEdge 193 162))
(rule (DUEdge 194 162))
(rule (DUEdge 195 162))
(rule (DUEdge 148 162))
(rule (DUEdge 196 162))
(rule (DUEdge 197 162))
(rule (DUEdge 198 162))
(rule (DUEdge 199 162))
(rule (DUEdge 200 162))
(rule (DUEdge 201 162))
(rule (DUEdge 202 162))
(rule (DUEdge 203 162))
(rule (DUEdge 204 162))
(rule (DUEdge 205 162))
(rule (DUEdge 206 162))
(rule (DUEdge 207 162))
(rule (DUEdge 208 162))
(rule (DUEdge 209 214))
(rule (DUEdge 214 215))
(rule (DUEdge 215 216))
(rule (DUEdge 216 162))
(rule (DUEdge 210 217))
(rule (DUEdge 217 162))
(rule (DUEdge 211 162))
(rule (DUEdge 212 162))
(rule (DUEdge 151 162))
(rule (DUEdge 162 161))
(rule (DUEdge 163 160))
(rule (EvalLv 154 28 218))
(rule (EvalLv 154 219 220))
(rule (EvalLv 154 221 222))
(rule (EvalLv 154 223 224))
(rule (EvalLv 154 225 226))
(rule (EvalLv 155 227 228))
(rule (EvalLv 155 28 218))
(rule (EvalLv 155 219 220))
(rule (EvalLv 155 229 218))
(rule (EvalLv 155 230 218))
(rule (EvalLv 155 231 218))
(rule (EvalLv 53 146 232))
(rule (EvalLv 158 147 233))
(rule (EvalLv 158 234 235))
(rule (EvalLv 158 236 237))
(rule (EvalLv 145 146 232))
(rule (EvalLv 145 147 233))
(rule (EvalLv 157 146 232))
(rule (EvalLv 157 238 239))
(rule (EvalLv 157 240 241))
(rule (EvalLv 55 242 243))
(rule (EvalLv 55 244 245))
(rule (EvalLv 57 242 243))
(rule (EvalLv 57 244 245))
(rule (EvalLv 59 242 243))
(rule (EvalLv 59 244 245))
(rule (EvalLv 61 242 243))
(rule (EvalLv 61 244 245))
(rule (EvalLv 62 242 243))
(rule (EvalLv 62 244 245))
(rule (EvalLv 63 242 243))
(rule (EvalLv 63 244 245))
(rule (EvalLv 65 242 243))
(rule (EvalLv 65 244 245))
(rule (EvalLv 67 242 243))
(rule (EvalLv 67 244 245))
(rule (EvalLv 68 242 243))
(rule (EvalLv 68 244 245))
(rule (EvalLv 69 242 243))
(rule (EvalLv 69 244 245))
(rule (EvalLv 70 242 243))
(rule (EvalLv 70 244 245))
(rule (EvalLv 71 242 243))
(rule (EvalLv 71 244 245))
(rule (EvalLv 72 242 243))
(rule (EvalLv 72 244 245))
(rule (EvalLv 73 242 243))
(rule (EvalLv 73 244 245))
(rule (EvalLv 74 242 243))
(rule (EvalLv 74 244 245))
(rule (EvalLv 75 242 243))
(rule (EvalLv 75 244 245))
(rule (EvalLv 76 242 243))
(rule (EvalLv 76 244 245))
(rule (EvalLv 77 242 243))
(rule (EvalLv 77 244 245))
(rule (EvalLv 78 242 243))
(rule (EvalLv 78 244 245))
(rule (EvalLv 79 242 243))
(rule (EvalLv 79 244 245))
(rule (EvalLv 80 242 243))
(rule (EvalLv 80 244 245))
(rule (EvalLv 81 242 243))
(rule (EvalLv 81 244 245))
(rule (EvalLv 82 242 243))
(rule (EvalLv 82 244 245))
(rule (EvalLv 83 242 243))
(rule (EvalLv 83 244 245))
(rule (EvalLv 84 242 243))
(rule (EvalLv 84 244 245))
(rule (EvalLv 85 242 243))
(rule (EvalLv 85 244 245))
(rule (EvalLv 86 242 243))
(rule (EvalLv 86 244 245))
(rule (EvalLv 87 242 243))
(rule (EvalLv 87 244 245))
(rule (EvalLv 88 242 243))
(rule (EvalLv 88 244 245))
(rule (EvalLv 89 242 243))
(rule (EvalLv 89 244 245))
(rule (EvalLv 90 242 243))
(rule (EvalLv 90 244 245))
(rule (EvalLv 91 242 243))
(rule (EvalLv 91 244 245))
(rule (EvalLv 92 242 243))
(rule (EvalLv 92 244 245))
(rule (EvalLv 93 242 243))
(rule (EvalLv 93 244 245))
(rule (EvalLv 94 242 243))
(rule (EvalLv 94 244 245))
(rule (EvalLv 95 242 243))
(rule (EvalLv 95 244 245))
(rule (EvalLv 96 242 243))
(rule (EvalLv 96 244 245))
(rule (EvalLv 97 242 243))
(rule (EvalLv 97 244 245))
(rule (EvalLv 98 242 243))
(rule (EvalLv 98 244 245))
(rule (EvalLv 99 242 243))
(rule (EvalLv 99 244 245))
(rule (EvalLv 100 242 243))
(rule (EvalLv 100 244 245))
(rule (EvalLv 101 242 243))
(rule (EvalLv 101 244 245))
(rule (EvalLv 103 242 243))
(rule (EvalLv 103 244 245))
(rule (EvalLv 105 242 243))
(rule (EvalLv 105 244 245))
(rule (EvalLv 106 242 243))
(rule (EvalLv 106 244 245))
(rule (EvalLv 107 242 243))
(rule (EvalLv 107 244 245))
(rule (EvalLv 108 242 243))
(rule (EvalLv 108 244 245))
(rule (EvalLv 109 242 243))
(rule (EvalLv 109 244 245))
(rule (EvalLv 110 242 243))
(rule (EvalLv 110 244 245))
(rule (EvalLv 111 152 246))
(rule (EvalLv 189 242 243))
(rule (EvalLv 190 242 243))
(rule (EvalLv 191 242 243))
(rule (EvalLv 213 242 243))
(rule (EvalLv 192 242 243))
(rule (EvalLv 193 242 243))
(rule (EvalLv 194 242 243))
(rule (EvalLv 195 242 243))
(rule (EvalLv 148 149 247))
(rule (EvalLv 148 150 248))
(rule (EvalLv 196 242 243))
(rule (EvalLv 197 242 243))
(rule (EvalLv 198 242 243))
(rule (EvalLv 199 242 243))
(rule (EvalLv 200 242 243))
(rule (EvalLv 201 242 243))
(rule (EvalLv 202 242 243))
(rule (EvalLv 203 242 243))
(rule (EvalLv 204 242 243))
(rule (EvalLv 205 242 243))
(rule (EvalLv 206 242 243))
(rule (EvalLv 207 242 243))
(rule (EvalLv 208 242 243))
(rule (EvalLv 209 242 243))
(rule (EvalLv 214 242 243))
(rule (EvalLv 215 242 243))
(rule (EvalLv 216 242 243))
(rule (EvalLv 210 242 243))
(rule (EvalLv 217 242 243))
(rule (EvalLv 211 242 243))
(rule (EvalLv 212 242 243))
(rule (EvalLv 151 242 243))
(rule (EvalLv 151 152 246))
(rule (EvalLv 151 153 249))
(rule (EvalLv 151 250 251))
(rule (EvalLv 162 242 243))
(rule (EvalLv 163 252 253))
(rule (EvalLv 163 254 255))
(rule (EvalLv 163 152 246))
(rule (EvalLv 163 26 256))
(rule (EvalLv 163 149 247))
(rule (EvalLv 163 257 258))
(rule (Index 28 219 125))
(rule (Index 229 219 116))
(rule (Index 230 219 123))
(rule (Index 231 219 259))
(rule (LibCallExp 260 261 48))
(rule (LibCallExp 262 263 32))
(rule (LvalExp 264 147))
(rule (LvalExp 113 242))
(rule (LvalExp 115 244))
(rule (LvalExp 142 254))
(rule (LvalExp 42 152))
(rule (LvalExp 45 149))
(rule (LvalExp 47 257))
(rule (LvalExp 265 153))
(rule (LvalExp 121 250))
(rule (LvalExp 266 150))
(rule (LvalExp 261 234))
(rule (LvalExp 50 236))
(rule (LvalExp 31 146))
(rule (LvalExp 144 240))
(rule (LvalExp 135 28))
(rule (LvalExp 137 229))
(rule (LvalExp 139 230))
(rule (LvalExp 130 231))
(rule (LvalExp 263 223))
(rule (LvalExp 39 225))
(rule (Mem 153 120))
(rule (Set 154 221 262))
(rule (Set 155 227 128))
(rule (Set 158 147 260))
(rule (Set 145 146 264))
(rule (Set 157 238 143))
(rule (Set 189 242 117))
(rule (Set 190 242 117))
(rule (Set 191 242 117))
(rule (Set 213 242 117))
(rule (Set 192 242 117))
(rule (Set 193 242 117))
(rule (Set 194 242 117))
(rule (Set 195 242 117))
(rule (Set 148 149 266))
(rule (Set 196 242 117))
(rule (Set 197 242 117))
(rule (Set 198 242 117))
(rule (Set 199 242 117))
(rule (Set 200 242 117))
(rule (Set 201 242 117))
(rule (Set 202 242 117))
(rule (Set 203 242 117))
(rule (Set 204 242 117))
(rule (Set 205 242 117))
(rule (Set 206 242 117))
(rule (Set 207 242 117))
(rule (Set 208 242 117))
(rule (Set 209 242 117))
(rule (Set 214 242 117))
(rule (Set 215 242 117))
(rule (Set 216 242 117))
(rule (Set 210 242 117))
(rule (Set 217 242 117))
(rule (Set 211 242 117))
(rule (Set 212 242 117))
(rule (Set 151 152 265))
(rule (Set 162 242 117))
(rule (Set 163 252 141))
(rule (Skip 159))
(rule (Skip 161))
(rule (Skip 164))
(rule (Skip 165))
(rule (Skip 166))
(rule (Skip 167))
(rule (Skip 168))
(rule (Skip 169))
(rule (Skip 170))
(rule (Skip 171))
(rule (Skip 172))
(rule (Skip 173))
(rule (Skip 174))
(rule (Skip 175))
(rule (Skip 176))
(rule (Skip 177))
(rule (Skip 178))
(rule (Skip 179))
(rule (Skip 180))
(rule (Skip 181))
(rule (Skip 182))
(rule (Skip 183))
(rule (Skip 184))
(rule (Skip 185))
(rule (Skip 186))
(rule (Skip 187))
(rule (Skip 188))
(rule (UnOpExp 58 23 60))
(rule (UnOpExp 102 23 104))
(rule (UnOpExp 64 23 66))
(rule (UnOpExp 54 23 124))
(rule (UnOpExp 56 23 267))
(rule (UnOpExp 267 23 126))
(rule (UnOpExp 112 23 127))
(rule (=> (and (Set 155 227 128)
         (Set 154 221 262)
         (LvalExp 130 231)
         (LvalExp 139 230)
         (LvalExp 137 229)
         (LvalExp 135 28)
         (LibCallExp 262 263 32)
         (EvalLv 155 231 218)
         (EvalLv 155 230 218)
         (EvalLv 155 229 218)
         (EvalLv 155 28 218)
         (EvalLv 154 28 218)
         (DUEdge 154 155)
         (BinOpExp 132 9 139 140)
         (BinOpExp 134 9 137 138)
         (BinOpExp 133 9 135 136)
         (BinOpExp 131 19 133 134)
         (BinOpExp 129 19 131 132)
         (BinOpExp 128 19 129 130)
         (Arg 32 33 27)
         (AddrOf 27 28))
    (ErrTrace 154 155)))
